c A SAT instance generated from a 3-CNF formula that had 27 clauses and 9 variables
p cnf 9 27
-1 -8 3 0
-7 9 1 0
4 7 -5 0
4 -6 -8 0
-1 4 -9 0
3 7 -2 0
7 8 6 0
6 -1 -8 0
-4 6 -9 0
3 8 7 0
6 8 9 0
9 -1 -3 0
-9 6 3 0
-9 -5 -7 0
-1 5 4 0
3 -4 1 0
-7 -5 1 0
6 5 -4 0
9 8 7 0
-5 1 9 0
8 -4 -9 0
1 3 -4 0
-9 1 -8 0
6 -8 5 0
4 -7 -8 0
2 -4 -7 0
7 -2 -5 0
